proyfinal/src/viki/013/andrea/andrea-localstore/experimentInOfficeAgust.take6/worker_3/cb963e1f-1541-434b-9dd8-cd4fb0571251.als.cnf.out
Reading from standard input... Use '--help' for help.
============================[ Problem Statistics ]=============================
|                                                                             |
|  Number of variables:         87638                                         |
|  Number of clauses:          161767                                         |
|  Parse time:                   0.04 s                                       |
|                                                                             |
============================[ Search Statistics ]==============================
| Conflicts |          ORIGINAL         |          LEARNT          | Progress |
|           |    Vars  Clauses Literals |    Limit  Clauses Lit/Cl |          |
===============================================================================
|       100 |   63649   109773   274470 |    40250      100     42 | 27.373 % |
|       250 |   63649   109773   274470 |    44275      250     55 | 27.373 % |
|       475 |   63649   109773   274470 |    48702      475     63 | 27.373 % |
|       812 |   63649   109773   274470 |    53572      812     55 | 27.373 % |
|      1318 |   63649   109773   274470 |    58930     1318     70 | 27.373 % |
|      2077 |   63648   109729   274380 |    64823     2073     77 | 27.374 % |
|      3216 |   50054    70845   178776 |    71305     3187     75 | 42.886 % |
|      4924 |   49398    68050   172126 |    78436     4871     67 | 43.634 % |
|      7486 |   48352    65289   165304 |    86279     6082     60 | 44.828 % |
===============================================================================
restarts              : 40
conflicts             : 9383           (6851 /sec)
decisions             : 29862          (0.00 % random) (21804 /sec)
propagations          : 15951943       (11647240 /sec)
conflict literals     : 512500         (44.15 % deleted)
Memory used           : 27.43 MB
CPU time              : 1.36959 s

UNSATISFIABLE
